c File: instances/32_0.65_1.col
c
c Description: Random graph of size 32 vertices and P(0.65) of edges between any two vertices.
p col 32 496
e 1 2
e 1 4
e 1 5
e 1 6
e 1 8
e 1 11
e 1 12
e 1 13
e 1 15
e 1 17
e 1 18
e 1 19
e 1 20
e 1 22
e 1 25
e 1 26
e 1 27
e 1 29
e 1 30
e 1 31
e 1 32
e 2 3
e 2 5
e 2 6
e 2 7
e 2 9
e 2 10
e 2 11
e 2 12
e 2 14
e 2 15
e 2 16
e 2 18
e 2 19
e 2 21
e 2 23
e 2 24
e 2 25
e 2 26
e 2 27
e 2 32
e 3 7
e 3 8
e 3 9
e 3 10
e 3 12
e 3 14
e 3 15
e 3 17
e 3 18
e 3 20
e 3 21
e 3 22
e 3 23
e 3 27
e 3 31
e 3 32
e 4 5
e 4 6
e 4 7
e 4 8
e 4 10
e 4 11
e 4 12
e 4 13
e 4 14
e 4 15
e 4 16
e 4 17
e 4 20
e 4 21
e 4 22
e 4 23
e 4 26
e 4 27
e 4 30
e 4 31
e 5 8
e 5 10
e 5 12
e 5 14
e 5 15
e 5 17
e 5 19
e 5 20
e 5 21
e 5 22
e 5 23
e 5 24
e 5 25
e 5 26
e 5 29
e 5 30
e 5 31
e 6 7
e 6 8
e 6 9
e 6 10
e 6 11
e 6 12
e 6 13
e 6 15
e 6 18
e 6 20
e 6 24
e 6 28
e 6 29
e 6 30
e 7 8
e 7 9
e 7 10
e 7 11
e 7 12
e 7 13
e 7 15
e 7 16
e 7 19
e 7 20
e 7 21
e 7 22
e 7 24
e 7 27
e 7 28
e 7 29
e 7 31
e 7 32
e 8 9
e 8 10
e 8 11
e 8 13
e 8 14
e 8 15
e 8 16
e 8 19
e 8 20
e 8 21
e 8 22
e 8 23
e 8 24
e 8 25
e 8 27
e 8 28
e 8 29
e 8 30
e 8 32
e 9 11
e 9 13
e 9 16
e 9 17
e 9 18
e 9 20
e 9 22
e 9 23
e 9 24
e 9 26
e 9 29
e 9 30
e 9 31
e 9 32
e 10 11
e 10 12
e 10 13
e 10 15
e 10 16
e 10 17
e 10 18
e 10 20
e 10 21
e 10 22
e 10 26
e 10 27
e 10 28
e 10 29
e 10 30
e 10 31
e 11 12
e 11 13
e 11 15
e 11 19
e 11 20
e 11 21
e 11 23
e 11 24
e 11 28
e 11 29
e 11 30
e 11 32
e 12 14
e 12 16
e 12 17
e 12 20
e 12 21
e 12 22
e 12 23
e 12 24
e 12 27
e 12 28
e 12 29
e 12 31
e 13 15
e 13 16
e 13 17
e 13 18
e 13 19
e 13 23
e 13 24
e 13 25
e 13 26
e 13 28
e 13 29
e 13 31
e 13 32
e 14 15
e 14 16
e 14 17
e 14 18
e 14 19
e 14 20
e 14 21
e 14 22
e 14 23
e 14 24
e 14 25
e 14 26
e 14 28
e 14 29
e 14 30
e 15 16
e 15 19
e 15 20
e 15 21
e 15 22
e 15 24
e 15 25
e 15 27
e 15 29
e 15 30
e 15 31
e 15 32
e 16 18
e 16 19
e 16 20
e 16 22
e 16 27
e 16 28
e 16 29
e 16 30
e 16 31
e 16 32
e 17 18
e 17 19
e 17 21
e 17 24
e 17 27
e 17 28
e 17 30
e 17 32
e 18 19
e 18 20
e 18 22
e 18 23
e 18 24
e 18 26
e 18 27
e 18 29
e 19 21
e 19 23
e 19 24
e 19 28
e 19 29
e 20 21
e 20 22
e 20 23
e 20 24
e 20 25
e 20 29
e 20 30
e 20 31
e 20 32
e 21 22
e 21 23
e 21 24
e 21 25
e 21 30
e 22 24
e 22 25
e 22 27
e 22 28
e 22 29
e 22 30
e 22 31
e 22 32
e 23 24
e 23 25
e 23 30
e 23 31
e 24 25
e 24 27
e 24 29
e 25 26
e 25 27
e 25 29
e 25 30
e 25 31
e 26 28
e 26 29
e 26 31
e 26 32
e 27 29
e 27 31
e 27 32
e 28 30
e 28 31
e 28 32
e 29 30
e 29 31
e 30 31
e 30 32
e 31 32